NAME: n60q40I.tsp, 60 nodes, semilla 888
COMMENT: Problema aleatorio de norma euclidea
DIMENSION: 60
CAPACITY: 40
EDGE_WEIGHT_TYPE: EUC_2D
NODE_COORD_SECTION
1   0.0000   0.0000
2 317.0000 439.0000
3 424.0000 411.0000
4 -174.0000 426.0000
5  38.0000 211.0000
6 117.0000 -53.0000
7 179.0000  85.0000
8 -145.0000 -67.0000
9 -314.0000 342.0000
10 385.0000 487.0000
11 -128.0000 -456.0000
12 -95.0000 133.0000
13 449.0000 -253.0000
14 389.0000 271.0000
15 -379.0000 468.0000
16  13.0000 -151.0000
17 223.0000 -422.0000
18 356.0000 -437.0000
19 309.0000  78.0000
20 103.0000 -391.0000
21 -20.0000 -109.0000
22  98.0000 485.0000
23 405.0000 -153.0000
24  15.0000 443.0000
25 288.0000 472.0000
26 -248.0000 -146.0000
27 184.0000  58.0000
28 479.0000 217.0000
29 312.0000 -160.0000
30  -4.0000 -431.0000
31 -348.0000 -214.0000
32 -121.0000 -311.0000
33 131.0000 342.0000
34 -258.0000 -362.0000
35  43.0000 265.0000
36 -119.0000 500.0000
37 -371.0000 343.0000
38 388.0000 296.0000
39  10.0000 442.0000
40 -307.0000 352.0000
41 -297.0000 -16.0000
42 398.0000 -313.0000
43  85.0000 -304.0000
44 -187.0000 494.0000
45 413.0000  22.0000
46 139.0000 -57.0000
47 -14.0000  45.0000
48 250.0000  91.0000
49 382.0000  84.0000
50 -437.0000 288.0000
51 -198.0000 436.0000
52 -234.0000 371.0000
53 -160.0000 -295.0000
54 162.0000 -228.0000
55 -269.0000  71.0000
56 144.0000 -286.0000
57 442.0000 462.0000
58  11.0000 -356.0000
59 -472.0000 281.0000
60 307.0000 458.0000
DISPLAY_DATA_SECTION:
 1  250  250
 2  408  469
 3  462  455
 4  163  463
 5  269  355
 6  308  223
 7  339  292
 8  177  216
 9   93  421
10  442  493
11  186   22
12  202  316
13  474  123
14  444  385
15   60  484
16  256  174
17  361   39
18  428   31
19  404  289
20  301   54
21  240  195
22  299  492
23  452  173
24  257  471
25  394  486
26  126  177
27  342  279
28  489  358
29  406  170
30  248   34
31   76  143
32  189   94
33  315  421
34  121   69
35  271  382
36  190  500
37   64  421
38  444  398
39  255  471
40   96  426
41  101  242
42  449   93
43  292   98
44  156  497
45  456  261
46  319  221
47  243  272
48  375  295
49  441  292
50   31  394
51  151  468
52  133  435
53  170  102
54  331  136
55  115  285
56  322  107
57  471  481
58  255   72
59   14  390
60  403  479
DEMAND_SECTION
1 2
2 -7
3 -2
4 7
5 9
6 0
7 -6
8 -3
9 -4
10 1
11 9
12 -1
13 -1
14 -4
15 9
16 5
17 3
18 6
19 -7
20 -6
21 -6
22 2
23 -1
24 4
25 4
26 -4
27 7
28 -3
29 -5
30 9
31 -6
32 -5
33 -6
34 -9
35 -9
36 1
37 2
38 5
39 1
40 7
41 -6
42 -6
43 6
44 9
45 8
46 -7
47 -6
48 -9
49 1
50 -7
51 4
52 -3
53 -1
54 1
55 -9
56 9
57 5
58 9
59 4
60 0
EOF